     Program PWSCF v.6.7MaX starts on 11Feb2022 at 20:16:25

     R & G space division:  proc/nbgrp/npool/nimage =      20
     Waiting for input...
     Reading input from standard input

     Current dimensions of program PWSCF are:
     Max number of different atomic species (ntypx) = 10
     Max number of k-points (npk) =  40000
     Max angular momentum in pseudopotentials (lmaxx) =  3
     file N.pbe-n-kjpaw_psl.1.0.0.UPF: wavefunction(s)  2S renormalized

     Message from routine setup:
     using ibrav=0 with symmetry is DISCOURAGED, use correct ibrav instead

     bravais-lattice index     =            0
     lattice parameter (alat)  =       4.7519  a.u.
     unit-cell volume          =     619.6623 (a.u.)^3
     number of atoms/cell      =            2
     number of atomic types    =            2
     number of electrons       =         8.00
     number of Kohn-Sham states=            8
     kinetic-energy cutoff     =      60.0000  Ry
     charge density cutoff     =     480.0000  Ry
     scf convergence threshold =      1.0E-08
     mixing beta               =       0.7000
     number of iterations used =            8  plain     mixing
     Exchange-correlation= SLA  PW   PBX  PBC
                           (   1   4   3   4   0   0   0)

     celldm(1)=   4.751900  celldm(2)=   0.000000  celldm(3)=   0.000000
     celldm(4)=   0.000000  celldm(5)=   0.000000  celldm(6)=   0.000000

     crystal axes: (cart. coord. in units of alat)
               a(1) = (   0.695942   0.000000   0.000000 )
               a(2) = (   0.347971   1.037267   0.000000 )
               a(3) = (   0.000000   0.000000   8.000000 )

     reciprocal axes: (cart. coord. in units 2 pi/alat)
               b(1) = (  1.436902 -0.482036  0.000000 )
               b(2) = (  0.000000  0.964072  0.000000 )
               b(3) = (  0.000000  0.000000  0.125000 )

     PseudoPot. # 1 for B  read from file:
     /mnt/scratch_b/users/m/marapcha/hBN.Bend/FinalBend/B.pbe-n-kjpaw_psl.1.0.0.UPF
     MD5 check sum: 8ad70b99953bd12f00b19037396195f2
     Pseudo is Projector augmented-wave + core cor, Zval =  3.0
     Generated using &quot;atomic&quot; code by A. Dal Corso  v.6.3
     Shape of augmentation charge: PSQ
     Using radial grid of 1059 points,  4 beta functions with:
                l(1) =   0
                l(2) =   0
                l(3) =   1
                l(4) =   1
     Q(r) pseudized with 0 coefficients

     PseudoPot. # 2 for N  read from file:
     /mnt/scratch_b/users/m/marapcha/hBN.Bend/FinalBend/N.pbe-n-kjpaw_psl.1.0.0.UPF
     MD5 check sum: a9d02d2210d123af897c360e4d4ce335
     Pseudo is Projector augmented-wave + core cor, Zval =  5.0
     Generated using &quot;atomic&quot; code by A. Dal Corso  v.6.3
     Shape of augmentation charge: PSQ
     Using radial grid of 1085 points,  4 beta functions with:
                l(1) =   0
                l(2) =   0
                l(3) =   1
                l(4) =   1
     Q(r) pseudized with 0 coefficients

     atomic species   valence    mass     pseudopotential
        B              3.00    10.81000     B ( 1.00)
        N              5.00    14.01000     N ( 1.00)

      4 Sym. Ops. (no inversion) found

   Cartesian axes

     site n.     atom                  positions (alat units)
         1           B   tau(   1) = (   0.0000000   0.0000000   0.0000000  )
         2           N   tau(   2) = (   0.3479708   0.4602666   0.0000000  )

     number of k points=    21  Gaussian smearing, width (Ry)=  0.0010
                       cart. coord. in units 2pi/alat
        k(    1) = (   0.0000000   0.0000000   0.0000000), wk =   0.0312500
        k(    2) = (   0.0000000   0.1205090   0.0000000), wk =   0.0625000
        k(    3) = (   0.0000000   0.2410181   0.0000000), wk =   0.0625000
        k(    4) = (   0.0000000   0.3615271   0.0000000), wk =   0.0625000
        k(    5) = (   0.0000000  -0.4820362   0.0000000), wk =   0.0312500
        k(    6) = (   0.1796128  -0.0602545   0.0000000), wk =   0.1250000
        k(    7) = (   0.1796128   0.1807636   0.0000000), wk =   0.1250000
        k(    8) = (   0.1796128   0.3012726   0.0000000), wk =   0.1250000
        k(    9) = (   0.1796128  -0.5422907   0.0000000), wk =   0.1250000
        k(   10) = (   0.3592255  -0.1205090   0.0000000), wk =   0.1250000
        k(   11) = (   0.3592255   0.0000000   0.0000000), wk =   0.0625000
        k(   12) = (   0.3592255   0.2410181   0.0000000), wk =   0.1250000
        k(   13) = (   0.3592255  -0.6025452   0.0000000), wk =   0.1250000
        k(   14) = (   0.3592255  -0.4820362   0.0000000), wk =   0.0625000
        k(   15) = (   0.5388383  -0.1807636   0.0000000), wk =   0.1250000
        k(   16) = (   0.5388383  -0.0602545   0.0000000), wk =   0.1250000
        k(   17) = (   0.5388383  -0.6627997   0.0000000), wk =   0.1250000
        k(   18) = (   0.5388383  -0.5422907   0.0000000), wk =   0.1250000
        k(   19) = (  -0.7184511   0.2410181   0.0000000), wk =   0.0625000
        k(   20) = (  -0.7184511   0.3615271   0.0000000), wk =   0.1250000
        k(   21) = (  -0.7184511   0.4820362   0.0000000), wk =   0.0625000

     Initial potential from superposition of free atoms

     starting charge    7.99971, renormalised to    8.00000

     negative rho (up, down):  7.963E-05 0.000E+00
     Starting wfcs are    8 randomized atomic wfcs
     Checking if some PAW data can be deallocated...

     Self-consistent Calculation

     iteration #  1     ecut=    60.00 Ry     beta= 0.70
     Davidson diagonalization with overlap
     ethr =  1.00E-02,  avg # of iterations =  5.4

     negative rho (up, down):  1.226E-04 0.000E+00

     total energy              =     -39.26502425 Ry
     estimated scf accuracy    <       0.33675309 Ry

[...]

     iteration #  5     ecut=    60.00 Ry     beta= 0.70
     Davidson diagonalization with overlap
     c_bands:  1 eigenvalues not converged
     ethr =  2.81E-06,  avg # of iterations =  4.8

[...]

     total energy              =     -39.41063542 Ry
     estimated scf accuracy    <       0.00000013 Ry

     iteration #  8     ecut=    60.00 Ry     beta= 0.70
     Davidson diagonalization with overlap
     ethr =  1.68E-09,  avg # of iterations =  1.8

[...]

     End of self-consistent calculation

          k = 0.0000 0.0000 0.0000 (  4873 PWs)   bands (ev):

   -25.5733 -13.1709 -11.7036  -1.9017   1.1990   1.4511   2.2053   2.8319

[...]

          k = 0.5388-0.5423 0.0000 (  4901 PWs)   bands (ev):

[...]

          k =-0.7185 0.2410 0.0000 (  4898 PWs)   bands (ev):

[...]

          k =-0.7185 0.4820 0.0000 (  4908 PWs)   bands (ev):

   -17.4706 -14.7500 -10.7056  -3.7422   1.2204   3.6062   7.6779  10.6914

     the Fermi energy is    -0.5267 ev

!    total energy              =     -39.41063545 Ry

     total all-electron energy =      -158.948781 Ry
     estimated scf accuracy    <          5.1E-10 Ry
     smearing contrib. (-TS)   =      -0.00000000 Ry
     internal energy E=F+TS    =     -39.41063545 Ry

     The total energy is F=E-TS. E is the sum of the following terms:
     one-electron contribution =    -261.24416133 Ry
     hartree contribution      =     132.08901267 Ry
     xc contribution           =      -8.88131380 Ry
     ewald contribution        =     111.81126064 Ry
     one-center paw contrib.   =     -13.18543362 Ry

     convergence has been achieved in   8 iterations

     negative rho (up, down):  9.940E-05 0.000E+00

     Forces acting on atoms (cartesian axes, Ry/au):

     atom    1 type  1   force =     0.00000000    0.05320030    0.00000000
     atom    2 type  2   force =     0.00000000   -0.05320030    0.00000000

     Total force =     0.075237     Total SCF correction =     0.000001

     Computing stress (Cartesian axis) and pressure

     negative rho (up, down):  9.940E-05 0.000E+00
          total   stress  (Ry/bohr**3)                   (kbar)     P=       97.18
   0.00172256   0.00000000   0.00000000          253.40        0.00        0.00
   0.00000000   0.00026298  -0.00000000            0.00       38.69       -0.00
   0.00000000  -0.00000000  -0.00000369            0.00       -0.00       -0.54

     Writing output data file /mnt/scratch_b/users/m/marapcha/hBN.Bend/FinalBend/BN.save/

     General routines

     Parallel routines

   This run was terminated on:  20:16:35  11Feb2022

   JOB DONE.