     Program PWSCF v.6.7MaX starts on 18Apr2023 at  2:27:36

     R & G space division:  proc/nbgrp/npool/nimage =      20
     Waiting for input...
     Reading input from standard input

     Current dimensions of program PWSCF are:
     Max number of different atomic species (ntypx) = 10
     Max number of k-points (npk) =  40000
     Max angular momentum in pseudopotentials (lmaxx) =  3
     file N.pbe-n-kjpaw_psl.1.0.0.UPF: wavefunction(s)  2S renormalized

     Message from routine setup:
     using ibrav=0 with symmetry is DISCOURAGED, use correct ibrav instead

     bravais-lattice index     =            0
     lattice parameter (alat)  =      45.7057  a.u.
     unit-cell volume          =    8255.8209 (a.u.)^3
     number of atoms/cell      =           22
     number of atomic types    =            2
     number of electrons       =        88.00
     number of Kohn-Sham states=           48
     kinetic-energy cutoff     =      60.0000  Ry
     charge density cutoff     =     480.0000  Ry
     scf convergence threshold =      1.0E-06
     mixing beta               =       0.7000
     number of iterations used =            8  plain     mixing
     Exchange-correlation= SLA  PW   PBX  PBC
                           (   1   4   3   4   0   0   0)

     celldm(1)=  45.705741  celldm(2)=   0.000000  celldm(3)=   0.000000
     celldm(4)=   0.000000  celldm(5)=   0.000000  celldm(6)=   0.000000

     crystal axes: (cart. coord. in units of alat)
               a(1) = (   1.000000   0.000000   0.000000 )
               a(2) = (   0.000000   0.180069   0.000000 )
               a(3) = (   0.000000   0.000000   0.480185 )

     reciprocal axes: (cart. coord. in units 2 pi/alat)
               b(1) = (  1.000000  0.000000  0.000000 )
               b(2) = (  0.000000  5.553418  0.000000 )
               b(3) = (  0.000000  0.000000  2.082532 )

     PseudoPot. # 1 for B  read from file:
     /mnt/scratch_b/users/m/marapcha/hBN.Torsion/Armchair/PSEUDO_DIR/B.pbe-n-kjpaw_psl.1.0.0.UPF
     MD5 check sum: 8ad70b99953bd12f00b19037396195f2
     Pseudo is Projector augmented-wave + core cor, Zval =  3.0
     Generated using &quot;atomic&quot; code by A. Dal Corso  v.6.3
     Shape of augmentation charge: PSQ
     Using radial grid of 1059 points,  4 beta functions with:
                l(1) =   0
                l(2) =   0
                l(3) =   1
                l(4) =   1
     Q(r) pseudized with 0 coefficients

     PseudoPot. # 2 for N  read from file:
     /mnt/scratch_b/users/m/marapcha/hBN.Torsion/Armchair/PSEUDO_DIR/N.pbe-n-kjpaw_psl.1.0.0.UPF
     MD5 check sum: a9d02d2210d123af897c360e4d4ce335
     Pseudo is Projector augmented-wave + core cor, Zval =  5.0
     Generated using &quot;atomic&quot; code by A. Dal Corso  v.6.3
     Shape of augmentation charge: PSQ
     Using radial grid of 1085 points,  4 beta functions with:
                l(1) =   0
                l(2) =   0
                l(3) =   1
                l(4) =   1
     Q(r) pseudized with 0 coefficients

     atomic species   valence    mass     pseudopotential
        B              3.00    10.81000     B ( 1.00)
        N              5.00    14.01000     N ( 1.00)

      4 Sym. Ops. (no inversion) found

   Cartesian axes

     site n.     atom                  positions (alat units)
         1           B   tau(   1) = (  -0.1559446   0.0000000   0.0000000  )
         2           N   tau(   2) = (  -0.1039630   0.0300115   0.0000000  )
         3           B   tau(   3) = (  -0.0519815   0.0000000   0.0000000  )
         4           N   tau(   4) = (   0.0000000   0.0300115   0.0000000  )
         5           B   tau(   5) = (   0.0519815   0.0000000   0.0000000  )
         6           N   tau(   6) = (   0.1039630   0.0300115   0.0000000  )
         7           B   tau(   7) = (   0.1559446   0.0000000   0.0000000  )
         8           N   tau(   8) = (  -0.1559446   0.1200462   0.0000000  )
         9           B   tau(   9) = (  -0.1039630   0.0900346   0.0000000  )
        10           N   tau(  10) = (  -0.0519815   0.1200462   0.0000000  )
        11           B   tau(  11) = (   0.0000000   0.0900346   0.0000000  )
        12           N   tau(  12) = (   0.0519815   0.1200462   0.0000000  )
        13           B   tau(  13) = (   0.1039630   0.0900346   0.0000000  )
        14           N   tau(  14) = (   0.1559446   0.1200462   0.0000000  )
        15           N   tau(  15) = (  -0.2079261   0.0300115   0.0000000  )
        16           B   tau(  16) = (  -0.2079261   0.0900346   0.0000000  )
        17           N   tau(  17) = (   0.2079261   0.0300115   0.0000000  )
        18           B   tau(  18) = (   0.2079261   0.0900346   0.0000000  )
        19           B   tau(  19) = (  -0.2599076   0.0000000   0.0000000  )
        20           N   tau(  20) = (  -0.2599076   0.1200462   0.0000000  )
        21           B   tau(  21) = (   0.2599076   0.0000000   0.0000000  )
        22           N   tau(  22) = (   0.2599076   0.1200462   0.0000000  )

     number of k points=    13  Gaussian smearing, width (Ry)=  0.0050
                       cart. coord. in units 2pi/alat
        k(    1) = (   0.0000000   0.0000000   0.0000000), wk =   0.0833333
        k(    2) = (   0.0000000   0.2313924   0.0000000), wk =   0.1666667
        k(    3) = (   0.0000000   0.4627848   0.0000000), wk =   0.1666667
        k(    4) = (   0.0000000   0.6941773   0.0000000), wk =   0.1666667
        k(    5) = (   0.0000000   0.9255697   0.0000000), wk =   0.1666667
        k(    6) = (   0.0000000   1.1569621   0.0000000), wk =   0.1666667
        k(    7) = (   0.0000000   1.3883545   0.0000000), wk =   0.1666667
        k(    8) = (   0.0000000   1.6197469   0.0000000), wk =   0.1666667
        k(    9) = (   0.0000000   1.8511393   0.0000000), wk =   0.1666667
        k(   10) = (   0.0000000   2.0825318   0.0000000), wk =   0.1666667
        k(   11) = (   0.0000000   2.3139242   0.0000000), wk =   0.1666667
        k(   12) = (   0.0000000   2.5453166   0.0000000), wk =   0.1666667
        k(   13) = (   0.0000000  -2.7767090   0.0000000), wk =   0.0833333

     Initial potential from superposition of free atoms

     starting charge   87.99681, renormalised to   88.00000

     negative rho (up, down):  5.790E-04 0.000E+00
     Starting wfcs are   88 randomized atomic wfcs
     Checking if some PAW data can be deallocated...

     Self-consistent Calculation

     iteration #  1     ecut=    60.00 Ry     beta= 0.70
     Davidson diagonalization with overlap
     ethr =  1.00E-02,  avg # of iterations =  2.0

     negative rho (up, down):  1.030E-03 0.000E+00

     total energy              =    -435.58644494 Ry
     estimated scf accuracy    <       5.54676805 Ry

[...]

     total energy              =    -437.82872439 Ry
     estimated scf accuracy    <       0.00000119 Ry

     iteration # 11     ecut=    60.00 Ry     beta= 0.70
     Davidson diagonalization with overlap
     ethr =  1.35E-09,  avg # of iterations =  3.5

     negative rho (up, down):  1.352E-03 0.000E+00

     End of self-consistent calculation

          k = 0.0000 0.0000 0.0000 ( 64743 PWs)   bands (ev):

   -21.9699 -21.6611 -21.1334 -20.4416 -19.6441 -18.9531 -18.9383 -18.7046
   -18.5854 -17.6174 -17.6156 -13.2226 -12.9472 -12.5166 -12.0849 -12.0650
   -11.7292 -11.3844 -11.0493 -10.8349 -10.3355 -10.0833  -9.5173  -9.5034
    -9.1451  -9.1340  -9.0855  -8.4075  -8.2895  -8.0624  -7.5161  -7.4344
    -6.9266  -6.4599  -6.3898  -6.1452  -5.3865  -5.2487  -4.9248  -4.7587
    -4.7539  -4.6936  -4.2063  -4.1110  -2.1483  -2.1334  -0.0263   0.0526

[...]

          k = 0.0000-2.7767 0.0000 ( 64852 PWs)   bands (ev):

   -20.9010 -20.7932 -20.7091 -20.4440 -20.2962 -19.9274 -19.7779 -19.3465
   -19.2641 -17.9977 -17.9694 -13.1358 -12.8695 -12.4479 -11.8548 -11.2971
   -10.7329 -10.0855  -9.9554  -9.6402  -9.4167  -9.4081  -8.6765  -8.6554
    -8.6243  -8.6172  -8.5455  -8.4834  -8.1352  -8.0169  -7.9291  -7.9134
    -7.7104  -7.6962  -7.4751  -7.1537  -6.8025  -6.4368  -6.0044  -5.7088
    -5.0485  -4.9225  -4.6694  -4.6531  -2.8436  -2.8358   0.1824   0.4512

     the Fermi energy is    -3.6677 ev

!    total energy              =    -437.82872461 Ry

     total all-electron energy =     -1752.748325 Ry
     estimated scf accuracy    <       0.00000012 Ry
     smearing contrib. (-TS)   =      -0.00000000 Ry
     internal energy E=F+TS    =    -437.82872461 Ry

     The total energy is F=E-TS. E is the sum of the following terms:
     one-electron contribution =   -1824.42877168 Ry
     hartree contribution      =     930.84543873 Ry
     xc contribution           =     -95.91005669 Ry
     ewald contribution        =     696.67327423 Ry
     one-center paw contrib.   =    -145.00860920 Ry

     convergence has been achieved in  11 iterations

     Writing output data file /mnt/scratch_b/users/m/marapcha/hBN.Torsion/Armchair/TMP_DIR/BN_arm.save/

     General routines

     Parallel routines

   This run was terminated on:   2:30:23  18Apr2023

   JOB DONE.