     Program PWSCF v.6.7MaX starts on 27Mar2023 at 21:30:37

     R & G space division:  proc/nbgrp/npool/nimage =      20
     Waiting for input...
     Reading input from standard input

     Current dimensions of program PWSCF are:
     Max number of different atomic species (ntypx) = 10
     Max number of k-points (npk) =  40000
     Max angular momentum in pseudopotentials (lmaxx) =  3
     file N.pbe-n-kjpaw_psl.1.0.0.UPF: wavefunction(s)  2S renormalized

     Message from routine setup:
     using ibrav=0 with symmetry is DISCOURAGED, use correct ibrav instead

     bravais-lattice index     =            0
     lattice parameter (alat)  =      54.8680  a.u.
     unit-cell volume          =    5722.0021 (a.u.)^3
     number of atoms/cell      =           18
     number of atomic types    =            2
     number of electrons       =        72.00
     number of Kohn-Sham states=           40
     kinetic-energy cutoff     =      60.0000  Ry
     charge density cutoff     =     480.0000  Ry
     scf convergence threshold =      1.0E-06
     mixing beta               =       0.7000
     number of iterations used =            8  plain     mixing
     Exchange-correlation= SLA  PW   PBX  PBC
                           (   1   4   3   4   0   0   0)

     celldm(1)=  54.868000  celldm(2)=   0.000000  celldm(3)=   0.000000
     celldm(4)=   0.000000  celldm(5)=   0.000000  celldm(6)=   0.000000

     crystal axes: (cart. coord. in units of alat)
               a(1) = (   1.000000   0.000000   0.000000 )
               a(2) = (   0.000000   0.086603   0.000000 )
               a(3) = (   0.000000   0.000000   0.400000 )

     reciprocal axes: (cart. coord. in units 2 pi/alat)
               b(1) = (  1.000000  0.000000  0.000000 )
               b(2) = (  0.000000 11.547005  0.000000 )
               b(3) = (  0.000000  0.000000  2.500000 )

     PseudoPot. # 1 for B  read from file:
     /mnt/scratch_b/users/m/marapcha/hBN.Torsion/Zig_zag/PSEUDO_DIR/B.pbe-n-kjpaw_psl.1.0.0.UPF
     MD5 check sum: 8ad70b99953bd12f00b19037396195f2
     Pseudo is Projector augmented-wave + core cor, Zval =  3.0
     Generated using &quot;atomic&quot; code by A. Dal Corso  v.6.3
     Shape of augmentation charge: PSQ
     Using radial grid of 1059 points,  4 beta functions with:
                l(1) =   0
                l(2) =   0
                l(3) =   1
                l(4) =   1
     Q(r) pseudized with 0 coefficients

     PseudoPot. # 2 for N  read from file:
     /mnt/scratch_b/users/m/marapcha/hBN.Torsion/Zig_zag/PSEUDO_DIR/N.pbe-n-kjpaw_psl.1.0.0.UPF
     MD5 check sum: a9d02d2210d123af897c360e4d4ce335
     Pseudo is Projector augmented-wave + core cor, Zval =  5.0
     Generated using &quot;atomic&quot; code by A. Dal Corso  v.6.3
     Shape of augmentation charge: PSQ
     Using radial grid of 1085 points,  4 beta functions with:
                l(1) =   0
                l(2) =   0
                l(3) =   1
                l(4) =   1
     Q(r) pseudized with 0 coefficients

     atomic species   valence    mass     pseudopotential
        B              3.00    10.81000     B ( 1.00)
        N              5.00    14.01000     N ( 1.00)

      4 Sym. Ops. (no inversion) found

   Cartesian axes

     site n.     atom                  positions (alat units)
         1           B   tau(   1) = (  -0.1500000   0.0000000   0.0000000  )
         2           N   tau(   2) = (  -0.1250000   0.0433013   0.0000000  )
         3           B   tau(   3) = (  -0.0750000   0.0433013   0.0000000  )
         4           N   tau(   4) = (  -0.0500000   0.0000000   0.0000000  )
         5           B   tau(   5) = (   0.0000000   0.0000000   0.0000000  )
         6           N   tau(   6) = (   0.0250000   0.0433013   0.0000000  )
         7           B   tau(   7) = (   0.0750000   0.0433013   0.0000000  )
         8           N   tau(   8) = (   0.1000000   0.0000000   0.0000000  )
         9           B   tau(   9) = (   0.1500000   0.0000000   0.0000000  )
        10           N   tau(  10) = (   0.1750000   0.0433013   0.0000000  )
        11           N   tau(  11) = (  -0.2000000   0.0000000   0.0000000  )
        12           B   tau(  12) = (  -0.2250000   0.0433013   0.0000000  )
        13           B   tau(  13) = (   0.2250000   0.0433013   0.0000000  )
        14           N   tau(  14) = (   0.2500000   0.0000000   0.0000000  )
        15           N   tau(  15) = (  -0.2750000   0.0433013   0.0000000  )
        16           B   tau(  16) = (  -0.3000000   0.0000000   0.0000000  )
        17           B   tau(  17) = (   0.3000000   0.0000000   0.0000000  )
        18           N   tau(  18) = (   0.3250000   0.0433013   0.0000000  )

     number of k points=    13  Gaussian smearing, width (Ry)=  0.0050
                       cart. coord. in units 2pi/alat
        k(    1) = (   0.0000000   0.0000000   0.0000000), wk =   0.0833333
        k(    2) = (   0.0000000   0.4811252   0.0000000), wk =   0.1666667
        k(    3) = (   0.0000000   0.9622504   0.0000000), wk =   0.1666667
        k(    4) = (   0.0000000   1.4433757   0.0000000), wk =   0.1666667
        k(    5) = (   0.0000000   1.9245009   0.0000000), wk =   0.1666667
        k(    6) = (   0.0000000   2.4056261   0.0000000), wk =   0.1666667
        k(    7) = (   0.0000000   2.8867513   0.0000000), wk =   0.1666667
        k(    8) = (   0.0000000   3.3678766   0.0000000), wk =   0.1666667
        k(    9) = (   0.0000000   3.8490018   0.0000000), wk =   0.1666667
        k(   10) = (   0.0000000   4.3301270   0.0000000), wk =   0.1666667
        k(   11) = (   0.0000000   4.8112522   0.0000000), wk =   0.1666667
        k(   12) = (   0.0000000   5.2923775   0.0000000), wk =   0.1666667
        k(   13) = (   0.0000000  -5.7735027   0.0000000), wk =   0.0833333

     Initial potential from superposition of free atoms

     starting charge   71.99739, renormalised to   72.00000

     negative rho (up, down):  3.777E-04 0.000E+00
     Starting wfcs are   72 randomized atomic wfcs
     Checking if some PAW data can be deallocated...

     Self-consistent Calculation

     iteration #  1     ecut=    60.00 Ry     beta= 0.70
     Davidson diagonalization with overlap
     ethr =  1.00E-02,  avg # of iterations =  2.0

     negative rho (up, down):  6.740E-04 0.000E+00

     total energy              =    -355.11967508 Ry
     estimated scf accuracy    <       6.07419936 Ry

[...]

     total energy              =    -358.29540036 Ry
     estimated scf accuracy    <       0.00000215 Ry

     iteration # 21     ecut=    60.00 Ry     beta= 0.70
     Davidson diagonalization with overlap
     ethr =  2.99E-09,  avg # of iterations =  2.5

     negative rho (up, down):  9.050E-04 0.000E+00

     End of self-consistent calculation

          k = 0.0000 0.0000 0.0000 ( 44871 PWs)   bands (ev):

   -22.5901 -21.9653 -21.5140 -21.1155 -20.6844 -20.1915 -19.6448 -19.0038
   -17.5038 -13.5089 -12.5249 -11.5764 -10.4748 -10.0507  -9.4017  -9.2815
    -9.1356  -8.9047  -8.5007  -8.4149  -8.0803  -8.0491  -7.8408  -7.6577
    -7.2499  -7.1812  -6.9628  -6.8021  -6.4692  -6.3172  -5.9613  -5.7587
    -5.7126  -4.8826  -4.7410  -3.4102  -3.1854  -0.0991   0.1169   0.6872

[...]

          k = 0.0000-5.7735 0.0000 ( 45084 PWs)   bands (ev):

   -20.1172 -19.8145 -19.4767 -19.1965 -18.9398 -18.6974 -18.4684 -18.2179
   -16.5903 -13.9558 -13.6157 -13.1746 -12.9146 -12.6104 -12.3157 -12.0079
   -11.3976 -11.0403 -10.4812 -10.3271  -9.9113  -9.5372  -9.2057  -8.8456
    -8.4857  -8.0508  -6.4950  -6.1496  -5.8287  -5.5553  -5.3008  -5.0578
    -4.8201  -4.5389  -3.7049  -2.8060  -2.7084  -1.2722  -0.1083   0.2182

     the Fermi energy is    -3.1632 ev

!    total energy              =    -358.29540048 Ry

     total all-electron energy =     -1434.138710 Ry
     estimated scf accuracy    <       0.00000016 Ry
     smearing contrib. (-TS)   =      -0.00149067 Ry
     internal energy E=F+TS    =    -358.29390981 Ry

     The total energy is F=E-TS. E is the sum of the following terms:
     one-electron contribution =   -1521.38239057 Ry
     hartree contribution      =     776.05797813 Ry
     xc contribution           =     -78.72637545 Ry
     ewald contribution        =     584.40351695 Ry
     one-center paw contrib.   =    -118.64663887 Ry

     convergence has been achieved in  21 iterations

     Writing output data file /mnt/scratch_b/users/m/marapcha/hBN.Torsion/Zig_zag/TMP_DIR/BN_zig.save/

     General routines

     Parallel routines

   This run was terminated on:  21:33: 8  27Mar2023

   JOB DONE.