     Program PWSCF v.6.7MaX starts on 23Nov2021 at 14:29:44

     R & G space division:  proc/nbgrp/npool/nimage =      20
     Waiting for input...
     Reading input from standard input

     Current dimensions of program PWSCF are:
     Max number of different atomic species (ntypx) = 10
     Max number of k-points (npk) =  40000
     Max angular momentum in pseudopotentials (lmaxx) =  3
     file N.pbe-n-kjpaw_psl.1.0.0.UPF: wavefunction(s)  2S renormalized

     Message from routine setup:
     using ibrav=0 with symmetry is DISCOURAGED, use correct ibrav instead

     bravais-lattice index     =            0
     lattice parameter (alat)  =       4.7519  a.u.
     unit-cell volume          =     743.3996 (a.u.)^3
     number of atoms/cell      =            2
     number of atomic types    =            2
     number of electrons       =         8.00
     number of Kohn-Sham states=            8
     kinetic-energy cutoff     =      60.0000  Ry
     charge density cutoff     =     480.0000  Ry
     scf convergence threshold =      1.0E-08
     mixing beta               =       0.7000
     number of iterations used =            8  plain     mixing
     Exchange-correlation= SLA  PW   PBX  PBC
                           (   1   4   3   4   0   0   0)

     celldm(1)=   4.751900  celldm(2)=   0.000000  celldm(3)=   0.000000
     celldm(4)=   0.000000  celldm(5)=   0.000000  celldm(6)=   0.000000

     crystal axes: (cart. coord. in units of alat)
               a(1) = (   1.000000   0.000000   0.000000 )
               a(2) = (   0.500000   0.866025   0.000000 )
               a(3) = (   0.000000   0.000000   8.000000 )

     reciprocal axes: (cart. coord. in units 2 pi/alat)
               b(1) = (  1.000000 -0.577351  0.000000 )
               b(2) = (  0.000000  1.154701  0.000000 )
               b(3) = (  0.000000  0.000000  0.125000 )

     PseudoPot. # 1 for B  read from file:
     /mnt/scratch_b/users/m/marapcha/Script/B.pbe-n-kjpaw_psl.1.0.0.UPF
     MD5 check sum: 8ad70b99953bd12f00b19037396195f2
     Pseudo is Projector augmented-wave + core cor, Zval =  3.0
     Generated using &quot;atomic&quot; code by A. Dal Corso  v.6.3
     Shape of augmentation charge: PSQ
     Using radial grid of 1059 points,  4 beta functions with:
                l(1) =   0
                l(2) =   0
                l(3) =   1
                l(4) =   1
     Q(r) pseudized with 0 coefficients

     PseudoPot. # 2 for N  read from file:
     /mnt/scratch_b/users/m/marapcha/Script/N.pbe-n-kjpaw_psl.1.0.0.UPF
     MD5 check sum: a9d02d2210d123af897c360e4d4ce335
     Pseudo is Projector augmented-wave + core cor, Zval =  5.0
     Generated using &quot;atomic&quot; code by A. Dal Corso  v.6.3
     Shape of augmentation charge: PSQ
     Using radial grid of 1085 points,  4 beta functions with:
                l(1) =   0
                l(2) =   0
                l(3) =   1
                l(4) =   1
     Q(r) pseudized with 0 coefficients

     atomic species   valence    mass     pseudopotential
        B              3.00    10.81000     B ( 1.00)
        N              5.00    14.01000     N ( 1.00)

      4 Sym. Ops. (no inversion) found

   Cartesian axes

     site n.     atom                  positions (alat units)
         1           B   tau(   1) = (   0.0000000   0.0000000   0.0000000  )
         2           N   tau(   2) = (   0.5000000   0.2886610   0.0000000  )

     number of k points=    21  Gaussian smearing, width (Ry)=  0.0010
                       cart. coord. in units 2pi/alat
        k(    1) = (   0.0000000   0.0000000   0.0000000), wk =   0.0312500
        k(    2) = (   0.0000000   0.1443376   0.0000000), wk =   0.0625000
        k(    3) = (   0.0000000   0.2886753   0.0000000), wk =   0.0625000
        k(    4) = (   0.0000000   0.4330129   0.0000000), wk =   0.0625000
        k(    5) = (   0.0000000  -0.5773505   0.0000000), wk =   0.0312500
        k(    6) = (   0.1250000   0.2165065   0.0000000), wk =   0.1250000
        k(    7) = (   0.1250000   0.3608441   0.0000000), wk =   0.1250000
        k(    8) = (   0.1250000  -0.6495194   0.0000000), wk =   0.1250000
        k(    9) = (   0.2500000  -0.7216882   0.0000000), wk =   0.1250000
        k(   10) = (   0.2500000  -0.5773505   0.0000000), wk =   0.0625000
        k(   11) = (  -0.1250000   0.0721688   0.0000000), wk =   0.1250000
        k(   12) = (  -0.2500000   0.1443376   0.0000000), wk =   0.1250000
        k(   13) = (  -0.3750000   0.2165065   0.0000000), wk =   0.1250000
        k(   14) = (   0.5000000  -0.2886753   0.0000000), wk =   0.0625000
        k(   15) = (   0.2500000   0.0000000   0.0000000), wk =   0.0625000
        k(   16) = (  -0.2500000   0.2886753   0.0000000), wk =   0.1250000
        k(   17) = (   0.3750000   0.0721688   0.0000000), wk =   0.1250000
        k(   18) = (   0.6250000  -0.2165065   0.0000000), wk =   0.1250000
        k(   19) = (  -0.5000000  -0.4330129   0.0000000), wk =   0.1250000
        k(   20) = (  -0.5000000  -0.5773505   0.0000000), wk =   0.0625000
        k(   21) = (   0.6250000  -0.0721688   0.0000000), wk =   0.1250000

     Initial potential from superposition of free atoms

     starting charge    7.99971, renormalised to    8.00000

     negative rho (up, down):  8.695E-05 0.000E+00
     Starting wfcs are    8 randomized atomic wfcs
     Checking if some PAW data can be deallocated...

     Self-consistent Calculation

     iteration #  1     ecut=    60.00 Ry     beta= 0.70
     Davidson diagonalization with overlap
     ethr =  1.00E-02,  avg # of iterations =  7.3

     negative rho (up, down):  1.368E-04 0.000E+00

     total energy              =     -39.73334031 Ry
     estimated scf accuracy    <       0.39506615 Ry

[...]

     total energy              =     -39.86488029 Ry
     estimated scf accuracy    <       0.00000001 Ry

     iteration #  8     ecut=    60.00 Ry     beta= 0.70
     Davidson diagonalization with overlap
     ethr =  1.36E-10,  avg # of iterations =  2.4

[...]

     End of self-consistent calculation

          k = 0.0000 0.0000 0.0000 (  5775 PWs)   bands (ev):

   -21.6908  -9.2781  -5.4356  -5.4348   0.6018   1.4686   1.6839   2.6149

[...]

          k =-0.1250 0.0722 0.0000 (  5792 PWs)   bands (ev):

[...]

          k =-0.5000-0.5774 0.0000 (  5872 PWs)   bands (ev):

[...]

          k = 0.6250-0.0722 0.0000 (  5824 PWs)   bands (ev):

   -18.1845 -12.2414 -10.6295  -4.2786   0.6728   8.5268   8.6483   9.6588

     the Fermi energy is    -2.0904 ev

!    total energy              =     -39.86488030 Ry

     total all-electron energy =      -159.403026 Ry
     estimated scf accuracy    <          2.2E-09 Ry
     smearing contrib. (-TS)   =      -0.00000000 Ry
     internal energy E=F+TS    =     -39.86488030 Ry

     The total energy is F=E-TS. E is the sum of the following terms:
     one-electron contribution =    -220.09598416 Ry
     hartree contribution      =     111.81234695 Ry
     xc contribution           =      -8.80427861 Ry
     ewald contribution        =      90.40330525 Ry
     one-center paw contrib.   =     -13.18026972 Ry

     convergence has been achieved in   8 iterations

     negative rho (up, down):  1.621E-04 0.000E+00

     Forces acting on atoms (cartesian axes, Ry/au):

     atom    1 type  1   force =     0.00000000   -0.00005501    0.00000000
     atom    2 type  2   force =     0.00000000    0.00005501    0.00000000

     Total force =     0.000078     Total SCF correction =     0.000000

     Computing stress (Cartesian axis) and pressure

     negative rho (up, down):  1.621E-04 0.000E+00
          total   stress  (Ry/bohr**3)                   (kbar)     P=        0.02
   0.00000158   0.00000000   0.00000000            0.23        0.00        0.00
   0.00000000   0.00000150   0.00000000            0.00        0.22        0.00
   0.00000000   0.00000000  -0.00000276            0.00        0.00       -0.41

     Writing output data file /mnt/scratch_b/users/m/marapcha/Script/BN.save/

     General routines

     Parallel routines

   This run was terminated on:  14:29:52  23Nov2021

   JOB DONE.